[$Version]
update_info=mailtransports.upd:initial-kmail-migration,kmail.upd:1,kmail.upd:4,kmail.upd:5,kmail.upd:6,kmail.upd:7,kmail.upd:8,kmail.upd:9,kmail.upd:3.1-update-identities,kmail.upd:3.1-use-identity-uoids,kmail.upd:3.1-new-mail-notification,kmail.upd:3.2-update-loop-on-goto-unread-settings,kmail.upd:3.1.4-dont-use-UOID-0-for-any-identity,kmail.upd:3.2-misc,kmail.upd:3.2-moves,kmail.upd:3.3-use-ID-for-accounts,kmail.upd:3.3-update-filter-rules,kmail.upd:3.3-move-identities-to-own-file,kmail.upd:3.3-aegypten-kpgprc-to-kmailrc,kmail.upd:3.3-misc,kmail.upd:3.3b1-misc,kmail.upd:3.4,kmail.upd:3.4a,kmail.upd:3.4b,kmail.upd:3.4.1,kmail.upd:3.5.4,kmail.upd:3.5.7-imap-flag-migration,kmail.upd:4.0-misc,kmail.upd:4.2

[Composer]
pref-charsets=us-ascii,iso-8859-1,locale,utf-8

[FavoriteFolderView]
IconSize=22
SortingPolicy=1
ToolTipDisplayPolicy=0

[Folder-drafts]
Compactable=true
ContentsType=0
ExpireAction=Delete
ExpireMessages=false
ExpireToFolder=
FolderSize=-1
HideInSelectionDialog=false
Id=1942366084
IgnoreNewMail=false
MailingListArchiveAddress=
MailingListEnabled=false
MailingListFeatures=0
MailingListHandler=0
MailingListHelpAddress=
MailingListId=
MailingListOwnerAddress=
MailingListPostingAddress=
MailingListSubscribeAddress=
MailingListUnsubscribeAddress=
MainFolderViewItemDnDSortingKey=-1
MainFolderViewItemIsExpanded=false
MainFolderViewItemIsSelected=false
NormalIconPath=
PutRepliesInSameFolder=false
ReadExpireAge=3
ReadExpireUnits=3
SystemLabel=
TotalMsgs=-1
UnreadExpireAge=12
UnreadExpireUnits=0
UnreadIconPath=
UnreadMsgs=-1
UseCustomIcons=false
UseDefaultIdentity=true
WhoField=

[Folder-inbox]
Compactable=true
ContentsType=0
ExpireAction=Delete
ExpireMessages=false
ExpireToFolder=
FolderSize=-1
HideInSelectionDialog=false
Id=686427185
IgnoreNewMail=false
MailingListArchiveAddress=
MailingListEnabled=false
MailingListFeatures=0
MailingListHandler=0
MailingListHelpAddress=
MailingListId=
MailingListOwnerAddress=
MailingListPostingAddress=
MailingListSubscribeAddress=
MailingListUnsubscribeAddress=
NormalIconPath=
PutRepliesInSameFolder=false
ReadExpireAge=3
ReadExpireUnits=3
SystemLabel=
TotalMsgs=-1
UnreadExpireAge=12
UnreadExpireUnits=0
UnreadIconPath=
UnreadMsgs=-1
UseCustomIcons=false
UseDefaultIdentity=true
WhoField=

[Folder-outbox]
Compactable=true
ContentsType=0
ExpireAction=Delete
ExpireMessages=false
ExpireToFolder=
FolderSize=-1
HideInSelectionDialog=false
Id=390754114
IgnoreNewMail=false
MailingListArchiveAddress=
MailingListEnabled=false
MailingListFeatures=0
MailingListHandler=0
MailingListHelpAddress=
MailingListId=
MailingListOwnerAddress=
MailingListPostingAddress=
MailingListSubscribeAddress=
MailingListUnsubscribeAddress=
MainFolderViewItemDnDSortingKey=-1
MainFolderViewItemIsExpanded=false
MainFolderViewItemIsSelected=false
NormalIconPath=
PutRepliesInSameFolder=false
ReadExpireAge=3
ReadExpireUnits=3
SystemLabel=
TotalMsgs=-1
UnreadExpireAge=12
UnreadExpireUnits=0
UnreadIconPath=
UnreadMsgs=-1
UseCustomIcons=false
UseDefaultIdentity=true
WhoField=

[Folder-sent-mail]
Compactable=true
ContentsType=0
ExpireAction=Delete
ExpireMessages=false
ExpireToFolder=
FolderSize=-1
HideInSelectionDialog=false
Id=250465734
IgnoreNewMail=false
MailingListArchiveAddress=
MailingListEnabled=false
MailingListFeatures=0
MailingListHandler=0
MailingListHelpAddress=
MailingListId=
MailingListOwnerAddress=
MailingListPostingAddress=
MailingListSubscribeAddress=
MailingListUnsubscribeAddress=
MainFolderViewItemDnDSortingKey=-1
MainFolderViewItemIsExpanded=false
MainFolderViewItemIsSelected=false
NormalIconPath=
PutRepliesInSameFolder=false
ReadExpireAge=3
ReadExpireUnits=3
SystemLabel=
TotalMsgs=-1
UnreadExpireAge=12
UnreadExpireUnits=0
UnreadIconPath=
UnreadMsgs=-1
UseCustomIcons=false
UseDefaultIdentity=true
WhoField=

[Folder-templates]
Compactable=true
ContentsType=0
ExpireAction=Delete
ExpireMessages=false
ExpireToFolder=
FolderSize=-1
HideInSelectionDialog=false
Id=1982413529
IgnoreNewMail=false
MailingListArchiveAddress=
MailingListEnabled=false
MailingListFeatures=0
MailingListHandler=0
MailingListHelpAddress=
MailingListId=
MailingListOwnerAddress=
MailingListPostingAddress=
MailingListSubscribeAddress=
MailingListUnsubscribeAddress=
MainFolderViewItemDnDSortingKey=-1
MainFolderViewItemIsExpanded=false
MainFolderViewItemIsSelected=false
NormalIconPath=
PutRepliesInSameFolder=false
ReadExpireAge=3
ReadExpireUnits=3
SystemLabel=
TotalMsgs=-1
UnreadExpireAge=12
UnreadExpireUnits=0
UnreadIconPath=
UnreadMsgs=-1
UseCustomIcons=false
UseDefaultIdentity=true
WhoField=

[Folder-trash]
Compactable=true
ContentsType=0
ExpireAction=Delete
ExpireMessages=false
ExpireToFolder=
FolderSize=-1
HideInSelectionDialog=false
Id=416823788
IgnoreNewMail=false
MailingListArchiveAddress=
MailingListEnabled=false
MailingListFeatures=0
MailingListHandler=0
MailingListHelpAddress=
MailingListId=
MailingListOwnerAddress=
MailingListPostingAddress=
MailingListSubscribeAddress=
MailingListUnsubscribeAddress=
MainFolderViewItemDnDSortingKey=-1
MainFolderViewItemIsExpanded=false
MainFolderViewItemIsSelected=false
NormalIconPath=
PutRepliesInSameFolder=false
ReadExpireAge=3
ReadExpireUnits=3
SystemLabel=
TotalMsgs=-1
UnreadExpireAge=12
UnreadExpireUnits=0
UnreadIconPath=
UnreadMsgs=-1
UseCustomIcons=false
UseDefaultIdentity=true
WhoField=

[Folder_local_root]
MainFolderViewItemDnDSortingKey=-1
MainFolderViewItemIsExpanded=true
MainFolderViewItemIsSelected=false

[Folder_search]
MainFolderViewItemDnDSortingKey=-1
MainFolderViewItemIsExpanded=false
MainFolderViewItemIsSelected=false

[General]
filters=0
first-start=false
folders[$e]=$HOME/.kde/share/apps/kmail/mail
messagetags=3
popfilters=0
popshowDLmsgs=false
previous-version=1.13.3

[Geometry]
FavoriteFolderViewLayout=000000ff00000000000000010000000000000000000000000000000000000000040e00000003000000030000006400000002000000460000000100000046000000b400000004010000000000000000000000000000006400000014000000810000000000000004000000b40000000100000000000000000000000100000000000000000000000100000000000000000000000100000000
FolderTreeHeight=573
MainFolderViewLayout=000000ff00000000000000010000000000000000010000000000000000000000040e00000003000000030000006400000002000000460000000100000046000000b400000004010100000000000000000000000000006400000014000000810000000000000004000000b40000000100000000000000000000000100000000000000000000000100000000000000000000000100000000
ReaderWindowHeight=1027
SearchAndHeaderHeight=338
SearchAndHeaderWidth=1027

[HTML Settings]
AutomaticDetectionLanguage=1

[Internal]
MsgDictSizeHint=0
PreviousNewFeaturesMD5=1B2M2Y8AsgTpgAmY7PhCfg==

[Main Window]
Height 800=752
State=AAAA/wAAAAD9AAAAAAAABQAAAAKkAAAABAAAAAQAAAAIAAAACPwAAAABAAAAAgAAAAEAAAAWAG0AYQBpAG4AVABvAG8AbABCAGEAcgEAAAAA/////wAAAAAAAAAA
ToolBarsMovable=Disabled
Width 1280=1280

[MainFolderView]
IconSize=16
SortingPolicy=0
ToolTipDisplayPolicy=0

[MessageListView::Aggregations]
Count=8
Set0=0000cafe00001001000000180031003200380038003200320031003900300033002d00310000004203a403c103ad03c703bf03c503c303b1002003b403c103b103c303c403b703c103b903cc03c403b703c403b1002c002003bc03b5002003bd03ae03bc03b103c403b10000018c039103c503c403ae002003b7002003c003c103bf03b203bf03bb03ae002003c703c103b703c303b903bc03bf03c003bf03b903b503af002003ad03be03c503c003bd03b503c2002003bf03bc03ac03b403b503c2002003b703bc03b503c103bf03bc03b703bd03b903ce03bd002e002003a403b1002003bc03b703bd03cd03bc03b103c403b1002003b503bc03c603b103bd03af03b603bf03bd03c403b103b9002e0020038803c403c303b9002003b303b903b1002003c003b103c103ac03b403b503b903b303bc03b1002c002003c303c403bf0020002203a303ae03bc03b503c103b10022002003b803b1002003b203c103b503af03c403b5002003cc03bb03b1002003c403b1002003c303b703bc03b503c103b903bd03ac002003bc03b703bd03cd03bc03b103c403b1002003ba03b103b803ce03c2002003ba03b103b9002003cc03bb03b1002003c403b1002003bd03ae03bc03b103c403b1002003c003bf03c5002003ae03c403b103bd002003b503bd03b503c103b303ac002003c303ae03bc03b503c103b1002e00001009000000020000000000000000000000010000000300000001000000040000000000000000000000000000babe
Set1=0000cafe00001001000000180031003200380038003200320031003900300033002d00320000003e03a403c103ad03c703bf03c503c303b1002003b403c103b103c303c403b703c103b903cc03c403b703c403b1002c002003b503c003af03c003b503b403bf00000154039103c503c403ae002003b7002003c003c103bf03b203bf03bb03ae002003c703c103b703c303b903bc03bf03c003bf03b903b503af002003ad03be03c503c003bd03b503c2002003bf03bc03ac03b403b503c2002003b703bc03b503c103bf03bc03b703bd03b903ce03bd002e002003a403b1002003bc03b703bd03cd03bc03b103c403b1002003b403b503bd002003b503bc03c603b103bd03af03b603bf03bd03c403b103b9002003c303b5002003bd03ae03bc03b103c403b1002e0020038803c403c303b9002003b303b903b1002003c003b103c103ac03b403b503b903b303bc03b1002c002003c303c403bf0020002203a303ae03bc03b503c103b10022002003b803b1002003b203c103b503af03c403b5002003b103c003bb03ac002003cc03bb03b1002003c403b1002003c303b703bc03b503c103b903bd03ac002003bc03b703bd03cd03bc03b103c403b1002e00001009000000020000000000000000000000010000000000000001000000000000000000000000000000000000babe
Set2=0000cafe00001001000000180031003200380038003200320031003900300033002d003300000050039403c103b103c303c403b703c103b903cc03c403b703c403b1002003ba03b103c403ac002003b703bc03b503c103bf03bc03b703bd03af03b1002c002003bc03b5002003bd03ae03bc03b103c403b100000188039103c503c403ae002003b7002003c003c103bf03b203bf03bb03ae002003c703c103b703c303b903bc03bf03c003bf03b903b503af002003c403b903c2002003bf03bc03ac03b403b503c2002003b703bc03b503c103ce03bd002e002003a403b1002003bc03b703bd03cd03bc03b103c403b1002003b503bc03c603b103bd03af03b603bf03bd03c403b103b9002003c303b5002003bd03ae03bc03b103c403b1002e0020038803c403c303b9002003b303b903b1002003c003b103c103ac03b403b503b903b303bc03b1002c002003c303c403bf0020002203a303ae03bc03b503c103b10022002003b803b1002003b203c103b503af03c403b5002003cc03bb03b1002003c403b1002003c303b703bc03b503c103b903bd03ac002003bc03b703bd03cd03bc03b103c403b1002003ba03b103b803ce03c2002003ba03b103b9002003c403b1002003bd03ae03bc03b103c403b1002003c003bf03c5002003b503af03bd03b103b9002003b503bd03b503c103b303ac002003c303ae03bc03b503c103b1002e00001009000000010000000000000000000000010000000300000001000000040000000000000000000000000000babe
Set3=0000cafe00001001000000180031003200380038003200320031003900300033002d00340000004c039403c103b103c303c403b703c103b903cc03c403b703c403b1002003ba03b103c403ac002003b703bc03b503c103bf03bc03b703bd03af03b1002c002003b503c003af03c003b503b403bf00000142039103c503c403ae002003b7002003c003c103bf03b203bf03bb03ae002003c703c103b703c303b903bc03bf03c003bf03b903b503af002003c403b903c2002003bf03bc03ac03b403b503c2002003b703bc03b503c103ce03bd002e002003a403b1002003bc03b703bd03cd03bc03b103c403b1002003b403b503bd002003b503bc03c603b103bd03af03b603bf03bd03c403b103b9002003c303b5002003bd03ae03bc03b103c403b1002e0020038803c403c303b9002003b303b903b1002003c003b103c103ac03b403b503b903b303bc03b1002c002003c303c403bf0020002203a303ae03bc03b503c103b10022002003b803b1002003b203c103b503af03c403b5002003b103c003bb03ac002003cc03bb03b1002003c403b1002003c303b703bc03b503c103b903bd03ac002003bc03b703bd03cd03bc03b103c403b1002e00001009000000010000000000000000000000010000000000000001000000000000000000000000000000000000babe
Set4=0000cafe00001001000000180031003200380038003200320031003900300033002d00350000003203a403c503c003b903ba03ae002003bb03af03c303c403b1002003c403b103c703c503b403c103bf03bc03b503af03bf03c5000000bc039103c503c403ae002003b503af03bd03b103b9002003b7002003c003b103bb03b903ac002003b103c003bb03ae002003c003c103bf03b203bf03bb03ae002003bb03af03c303c403b103c2002003c403b103c703c503b403c103bf03bc03b503af03bf03c5003a002003c703c903c103af03c2002003bf03bc03ac03b403b503c2002c002003bc03b5002003ad03bd03c403bf03bd03b7002003c003b103c103bf03c503c303af03b1002003bd03b703bc03ac03c403c903bd002e00001009000000000000000000000000000000000000000300000000000000040000000000000000000000000000babe
Set5=0000cafe00001001000000180031003200380038003200320031003900300033002d003600000036039503c003af03c003b503b403b7002003c003c103bf03b203bf03bb03ae002003b703bc03b503c103bf03bc03b703bd03af03b103c2000000e4039103c503c403ae002003b503af03bd03b103b9002003b7002003c003b103bb03b903ac002003b103c003bb03ae002003c003c103bf03b203bf03bb03ae002003bb03af03c303c403b103c2002003bc03b703bd03c503bc03ac03c403c903bd002003c403b103be03b903bd03bf03bc03b703bc03ad03bd03c903bd002003ba03b103c403ac002003c403b703bd002003b703bc03b503c103bf03bc03b703bd03af03b1003a002003c703c903c103af03c2002003bf03bc03ac03b403b503c2002003ba03b103b9002003c703c903c103af03c2002003bd03ae03bc03b103c403b1002e00001009000000000000000000000000000000000000000000000000000000000000000000000000000000000000babe
Set6=0000cafe00001001000000180031003200380038003200320031003900300033002d00370000003c039103c003bf03c303c403bf03bb03b503af03c2002f03c003b103c103b103bb03ae03c003c403b503c2002c002003b503c003af03c003b503b403bf00000130039103c503c403ae002003b7002003c003c103bf03b203bf03bb03ae002003bf03bc03b103b403bf03c003bf03b903b503af002003c403b1002003bc03b703bd03cd03bc03b103c403b1002003ba03b103c403ac002003c403bf03c503c2002003b103c003bf03c303c403bf03bb03b503af03c2002003ba03b103b9002003c403bf03c503c2002003c003b103c103b103bb03ae03c003c403b503c20020002803b103bd03ac03bb03bf03b303b1002003bc03b5002003c403bf03bd002003c403cd03c003bf002003c403bf03c5002003c603b103ba03ad03bb03bf03c50029002e002003a403b1002003bc03b703bd03cd03bc03b103c403b1002003b503bc03c603b103bd03af03b603bf03bd03c403b103b9002003c703c903c103af03c2002003bd03ae03bc03b103c403b1002e00001009000000030000000000000000000000000000000000000000000000000000000000000000000000010000babe
Set7=0000cafe00001001000000180031003200380038003200320031003900300033002d003800000020039503bd03ac03c103be03b503b903c2002003bd03b703bc03ac03c403c903bd000000d8039103c503c403ae002003b7002003c003c103bf03b203bf03bb03ae002003bf03bc03b103b403bf03c003bf03b903b503af002003c403b1002003bc03b703bd03cd03bc03b103c403b1002003c303b5002003bd03ae03bc03b103c403b1002003ba03b103b9002003ad03c003b503b903c403b1002003bf03bc03b103b403bf03c003bf03b903b503af002003c403b1002003bd03ae03bc03b103c403b1002003ba03b103c403ac002003c403bf03bd002003b103c103c703b903ba03cc002003c703c103ae03c303c403b7002003c403bf03c503c2002e00001009000000030000000000000000000000000000000300000000000000000000000000000000000000010000babe

[MessageListView::Themes]
Count=3
Set0=0000cafe000010010000001a0031003200380038003200320031003900300033002d0031003000000016039503bd03c403c503c003c903c303b903b103ba03cc0000006e038803bd03b1002003b503bd03c403c503c003c903c303b903b103ba03cc002003b803ad03bc03b1002003c003bf03bb03bb03b103c003bb03ce03bd002003b303c103b103bc03bc03ce03bd002003ba03b103b9002003b103bd03c403b903ba03b503b903bc03ad03bd03c903bd000010170000000100ffff0000000000000000000000070000000100000010000000010000000c039c03ae03bd03c503bc03b1ffffffff01000000000000000001000000020152000f000000000000001400530061006e00730020005300650072006900664022000000000000ffffffff0001003210006401000000000000000000ffff00000000000000000015000a000000080000001400530061006e00730020005300650072006900664022000000000000ffffffff0001004b10006401000000000000000000ffff0000000000000000000000000000000200000001002d0001000000000000001400530061006e00730020005300650072006900664022000000000000ffffffff0001003210006401000000000000000000ffff00000000000000000000000a00480007000000000000001400530061006e00730020005300650072006900664022000000000000ffffffff0001003210006401000000000000000000ffff0000000000000000004a0009000000010000001400530061006e00730020005300650072006900664022000000000000ffffffff0001003210006401000000000000000000ffff0000000000000000004a0008000000010000001400530061006e00730020005300650072006900664022000000000000ffffffff0001003210006401000000000000000000ffff0000000000000000004a0010000000010000001400530061006e00730020005300650072006900664022000000000000ffffffff0001003210006401000000000000000000ffff0000000000000000004a0011000000010000001400530061006e00730020005300650072006900664022000000000000ffffffff0001003210006401000000000000000000ffff000000000000000000480016000000010000001400530061006e00730020005300650072006900664022000000000000ffffffff0001003210006401000000000000000000ffff0000000000000000014a000b000000010000001400530061006e00730020005300650072006900664022000000000000ffffffff0001003210006401000000000000000000ffff0000000000000000014a000c000000010000001400530061006e00730020005300650072006900664022000000000000ffffffff0001003210006401000000000000000000ffff0000000000000000014a000d000000010000001400530061006e00730020005300650072006900664022000000000000ffffffff0001003210006401000000000000000000ffff0000000000000000014a000e000000010000001400530061006e00730020005300650072006900664022000000000000ffffffff0001003210006401000000000000000000ffff000000000000000000000001000d0003000000180000001400530061006e00730020005300650072006900664022000000000000ffffffff0001003211006401000000000000000000ffff000000000000000000000001001d0002000000180000001400530061006e00730020005300650072006900664022000000000000ffffffff0001003211006401000000000000000000ffff000000000000000000000001ffffffff0000babe
Set1=0000cafe00001001000000180031003200380038003200320031003900300033002d00390000000e039a03bb03b103c303b903ba03cc00000062038803bd03b1002003b103c003bb03cc002c002003c303c503bc03b203b103c403cc002003c003c103bf03c2002003c403b1002003c003af03c303c9002c002003b803ad03bc03b1002003bc03b903b103c2002003b303c103b103bc03bc03ae03c2000010170000000100ffff00000000000000000000000700000000000000100000001100000008039803ad03bc03b1ffffffff01000000000600000001000000020152000f000000000000001400530061006e00730020005300650072006900664022000000000000ffffffff0001003210006401000000000000000000ffff00000000000000000015000a000000080000001400530061006e00730020005300650072006900664022000000000000ffffffff0001004b10006401000000000000000000ffff000000000000000000000000000000010000000500480015000000000000001400530061006e00730020005300650072006900664022000000000000ffffffff0001003210006401000000000000000000ffff0000000000000000004a0008000000010000001400530061006e00730020005300650072006900664022000000000000ffffffff0001003210006401000000000000000000ffff0000000000000000004a0011000000010000001400530061006e00730020005300650072006900664022000000000000ffffffff0001003210006401000000000000000000ffff0000000000000000004a0010000000010000001400530061006e00730020005300650072006900664022000000000000ffffffff0001003210006401000000000000000000ffff0000000000000000002d0001000000000000001400530061006e00730020005300650072006900664022000000000000ffffffff0001003210006401000000000000000000ffff00000000000000000000000000000001ffffffff0000002a039103c003bf03c303c403bf03bb03ad03b103c2002f03c003b103c103b103bb03ae03c003c403b703c2ffffffff010100000003000000000000000100000001000d0003000000000000001400530061006e00730020005300650072006900664022000000000000ffffffff0001003210006401000000000000000000ffff00000000000000000000000000000001ffffffff00000014039103c003bf03c303c403bf03bb03ad03b103c2ffffffff000000000004000000000000000100000001000d0004000000000000001400530061006e00730020005300650072006900664022000000000000ffffffff0001003210006401000000000000000000ffff00000000000000000000000000000000ffffffff0000001403a003b103c103b103bb03ae03c003c403b703c2ffffffff000000000005000000000000000100000001000d0005000000000000001400530061006e00730020005300650072006900664022000000000000ffffffff0001003210006401000000000000000000ffff00000000000000000000000000000000ffffffff00000014039703bc03b503c103bf03bc03b703bd03af03b1ffffffff010000000001000000000000000100000001001d0002000000000000001400530061006e00730020005300650072006900664022000000000000ffffffff0001003210006401000000000000000000ffff00000000000000000000000000000001ffffffff0000002e03a003b903bf002003c003c103cc03c303c603b103c403b7002003b703bc03b503c103bf03bc03b703bd03af03b1ffffffff0000000000020000000100000001001d0014000000000000001400530061006e00730020005300650072006900664022000000000000ffffffff0001003210006401000000000000000000ffff0000000000000000000000000000000100000001001d0014000000000000001400530061006e00730020005300650072006900664022000000000000ffffffff0001003210006401000000000000000000ffff00000000000000000000000000000000ffffffff0000000e039c03ad03b303b503b803bf03c2ffffffff000000000007000000000000000100000001000d0006000000000000001400530061006e00730020005300650072006900664022000000000000ffffffff0001003210006401000000000000000000ffff00000000000000000000000000000000ffffffff0000001203a303c503bd03b703bc03bc03ad03bd03bf0000001e006d00610069006c002d006100740074006100630068006d0065006e0074000000000000000000000000000100000001004a0008000000020000001400530061006e00730020005300650072006900664022000000000000ffffffff0001003210006401000000000000000000ffff00000000000000000000000000000000ffffffff00000024039d03ad03bf002f03bc03b7002003b103bd03b103b303bd03c903c303bc03ad03bd03bf0000001e006d00610069006c002d0075006e0072006500610064002d006e0065007700000000000900000000000000010000000100480007000000020000001400530061006e00730020005300650072006900664022000000000000ffffffff0001003210006401000000000000000000ffff00000000000000000000000000000000ffffffff00000014039103c003b103bd03c403b703bc03ad03bd03bf00000018006d00610069006c002d007200650070006c006900650064000000000000000000000000000100000001004a0009000000020000001400530061006e00730020005300650072006900664022000000000000ffffffff0001003210006401000000000000000000ffff00000000000000000000000000000000ffffffff0000001203a303b703bc03b103bd03c403b903ba03cc000000200065006d0062006c0065006d002d0069006d0070006f007200740061006e0074000000000000000000000000000100000001014a000c000000020000001400530061006e00730020005300650072006900664022000000000000ffffffff0001003210006401000000000000000000ffff00000000000000000000000000000000ffffffff0000002a039103bd03c403b903ba03b503af03bc03b503bd03bf002003b503bd03ad03c103b303b503b903b103c200000012006d00610069006c002d007400610073006b000000000008000000000000000100000001014a000b000000020000001400530061006e00730020005300650072006900664022000000000000ffffffff0001003210006401000000000000000000ffff00000000000000000000000000000000ffffffff00000010005300700061006d002f00480061006d0000001c006d00610069006c002d006d00610072006b002d006a0075006e006b000000000000000000000000000100000001014a000d000000020000001400530061006e00730020005300650072006900664022000000000000ffffffff0001003210006401000000000000000000ffff00000000000000000000000000000000ffffffff0000003403a003b103c103b103ba03bf03bb03bf03c503b803bf03cd03bc03b503bd03bf002f03c003b103c103ac03b203bb03b503c803b700000022006d00610069006c002d007400680072006500610064002d00770061007400630068000000000000000000000000000100000001014a000e000000020000001400530061006e00730020005300650072006900664022000000000000ffffffff0001003210006401000000000000000000ffff00000000000000000000000000000000ffffffff0000001a039a03c103c503c003c403bf03b303c103ac03c603b703c303b700000026006d00610069006c002d0065006e0063007200790070007400650064002d00660075006c006c000000000000000000000000000100000001004a0010000000020000001400530061006e00730020005300650072006900664022000000000000ffffffff0001003210006401000000000000000000ffff00000000000000000000000000000000ffffffff0000001003a503c003bf03b303c103b103c603ae00000028006d00610069006c002d007300690067006e00650064002d00760065007200690066006900650064000000000000000000000000000100000001004a0011000000020000001400530061006e00730020005300650072006900664022000000000000ffffffff0001003210006401000000000000000000ffff00000000000000000000000000000000ffffffff0000001c039b03af03c303c403b1002003b503c403b903ba03b503c403ce03bd0000001c0066006500650064002d00730075006200730063007200690062006500000000000000000000000000010000000100480016000000020000001400530061006e00730020005300650072006900664022000000000000ffffffff0001003210006401000000000000000000ffff00000000000000000000000000000000ffffffff0000babe
Set2=0000cafe000010010000001a0031003200380038003200320031003900300033002d003100310000005a039503bd03c403c503c003c903c303b903b103ba03cc002003bc03b5002003b403c503bd03b103c403cc03c403b703c403b1002003b503c003b903bb03bf03b303ae03c2002003ba03b103c403ac03c303c403b103c303b703c2000000c4038803bd03b1002003b503bd03c403c503c003c903c303b903b103ba03cc002003b803ad03bc03b1002003c003bf03bb03bb03b103c003bb03ce03bd002003b303c103b103bc03bc03ce03bd002003ba03b103b9002003b103bd03c403b903ba03b503b903bc03ad03bd03c903bd002003bc03b5002003c303c403ae03bb03b7002003ba03b103c403ac03c303c403b103c303b703c2002003bc03b5002003b403c503bd03b103c403cc03c403b703c403b1002003b503c003b903bb03bf03b303ae03c2000010170000000100ffff0000000000000000000000070000000000000010000000020000000c039c03ae03bd03c503bc03b1ffffffff01000000000000000001000000020152000f000000000000001400530061006e00730020005300650072006900664022000000000000ffffffff0001003210006401000000000000000000ffff00000000000000000015000a000000080000001400530061006e00730020005300650072006900664022000000000000ffffffff0001004b10006401000000000000000000ffff0000000000000000000000000000000200000001002d0001000000000000001400530061006e00730020005300650072006900664022000000000000ffffffff0001003210006401000000000000000000ffff00000000000000000000000600480007000000000000001400530061006e00730020005300650072006900664022000000000000ffffffff0001003210006401000000000000000000ffff0000000000000000004a0009000000010000001400530061006e00730020005300650072006900664022000000000000ffffffff0001003210006401000000000000000000ffff0000000000000000004a0008000000010000001400530061006e00730020005300650072006900664022000000000000ffffffff0001003210006401000000000000000000ffff0000000000000000004a0010000000010000001400530061006e00730020005300650072006900664022000000000000ffffffff0001003210006401000000000000000000ffff0000000000000000004a0011000000010000001400530061006e00730020005300650072006900664022000000000000ffffffff0001003210006401000000000000000000ffff000000000000000000480016000000010000001400530061006e00730020005300650072006900664022000000000000ffffffff0001003210006401000000000000000000ffff000000000000000000000001000d0003000000180000001400530061006e00730020005300650072006900664022000000000000ffffffff0001003211006401000000000000000000ffff000000000000000000000001001d0002000000180000001400530061006e00730020005300650072006900664022000000000000ffffffff0001003211006401000000000000000000ffff000000000000000000000001ffffffff00000012039a03b103c403ac03c303c403b103c303b7ffffffff010000000000000000000000000200000002014a000b000000020000001400530061006e00730020005300650072006900664022000000000000ffffffff0001003210006401000000000000000000ffff0000000000000000014a000c000000020000001400530061006e00730020005300650072006900664022000000000000ffffffff0001003210006401000000000000000000ffff00000000000000000000000000000002014a000d000000020000001400530061006e00730020005300650072006900664022000000000000ffffffff0001003210006401000000000000000000ffff0000000000000000014a000e000000020000001400530061006e00730020005300650072006900664022000000000000ffffffff0001003210006401000000000000000000ffff00000000000000000000000000000001ffffffff0000babe

[MessageTag #0]
Label=RFI9VqkJGT
Name=Φίλος
icon=feed-subscribe
text-color=0,0,255
toolbar=false

[MessageTag #1]
Label=qks5ixv52h
Name=Επιχείρηση
icon=feed-subscribe
text-color=0,128,0
toolbar=false

[MessageTag #2]
Label=JJaNO9ZHmV
Name=Αργότερα
icon=feed-subscribe
text-color=0,139,139
toolbar=false

[MimePartTree]
State=000000ff00000000000000010000000000000004010000000000000000000000000000000000000190000000040101000100000000000000000000000064ffffffff000000810000000000000001000001900000000400000000

[Reader]
attachment-strategy=smart

[Startup]
update-level=24

[sending mail]
Immediate=true
Quoted-Printable=true
